NAME: kroA100
TYPE: TSP
COMMENT: 100-city problem A (Krolak/Felts/Nelson)
DIMENSION: 10
EDGE_WEIGHT_TYPE : EUC_3D
NODE_COORD_SECTION
1 1380 939 23
2 2848 96 45
3 3510 1671 67
4 457 334 65
5 3888 666 123
6 984 965 1245
7 2721 1482 22
8 1286 525 156
9 2716 1432 1337
10 738 1325 666
EOF
